SYSTEM = Au_111_TEST

ENCUT = 450

PREC = Normal
ISTART = 0
ICHARG = 2
ISPIN = 1

NELM = 100
NELMIN = 6
EDIFF = 1E-6
LREAL = Auto

EDIFFG = -0.001
NSW = 0
IBRION = 2
ISIF = 2

POTIM = 0.10
TEIN = 0.0
TEBEG = 0.0
TEEND = 0.0

ISMEAR = 1
SIGMA = 0.20

LWAVE = .False.
LCHGARG = .False.

!LVDW = .TRUE
!VDW_RADIUS = 30.0
!VDW_SCALING = 0.75
!VDW_D = 20.0
!VDW_C6 = 81.24
!VDW_R0 = 1.772

!LUSE_VDW = .TRUE
!AGGAC = 0.0000
!GGA = BO
!PARAM1 = 0.183333333333
!PARAM2 = 0.220000000000
